c User generated cnf file
p cnf 12 28
-6 1 2 0 
10 -4 2 0 
6 7 -9 0 
1 -3 10 0 
8 2 -7 0 
-8 7 3 0 
-8 7 6 0 
11 -5 3 0 
-10 10 8 0 
10 4 -5 0 
10 -9 11 0 
2 3 -2 0 
-3 6 1 0 
6 -11 2 0 
-5 8 1 0 
2 -12 8 0 
11 -11 3 0 
-7 4 2 0 
6 9 -2 0 
12 -5 4 0 
8 1 -5 0 
9 -8 11 0 
3 -4 9 0 
-2 10 12 0 
1 5 -1 0 
-2 10 8 0 
-11 7 12 0 
11 3 -7 0 
